examples/Knap/data/easy/input50_1.mps
NAME          input50_
ROWS
 L  R0001
 N  R0002
COLUMNS
    INT1      'MARKER'                 'INTORG'
    C0001     R0001     37
    C0001     R0002     -47
    C0002     R0001     16
    C0002     R0002     -26
    C0003     R0001     78
    C0003     R0002     -88
    C0004     R0001     87
    C0004     R0002     -97
    C0005     R0001     66
    C0005     R0002     -76
    C0006     R0001     30
    C0006     R0002     -40
    C0007     R0001     93
    C0007     R0002     -103
    C0008     R0001     62
    C0008     R0002     -72
    C0009     R0001     26
    C0009     R0002     -36
    C0010     R0001     6
    C0010     R0002     -16
    C0011     R0001     89
    C0011     R0002     -99
    C0012     R0001     58
    C0012     R0002     -68
    C0013     R0001     21
    C0013     R0002     -31
    C0014     R0001     45
    C0014     R0002     -55
    C0015     R0001     35
    C0015     R0002     -45
    C0016     R0001     46
    C0016     R0002     -56
    C0017     R0001     46
    C0017     R0002     -56
    C0018     R0001     25
    C0018     R0002     -35
    C0019     R0001     97
    C0019     R0002     -107
    C0020     R0001     87
    C0020     R0002     -97
    C0021     R0001     89
    C0021     R0002     -99
    C0022     R0001     38
    C0022     R0002     -48
    C0023     R0001     61
    C0023     R0002     -71
    C0024     R0001     39
    C0024     R0002     -49
    C0025     R0001     46
    C0025     R0002     -56
    C0026     R0001     6
    C0026     R0002     -16
    C0027     R0001     24
    C0027     R0002     -34
    C0028     R0001     50
    C0028     R0002     -60
    C0029     R0001     50
    C0029     R0002     -60
    C0030     R0001     92
    C0030     R0002     -102
    C0031     R0001     18
    C0031     R0002     -28
    C0032     R0001     87
    C0032     R0002     -97
    C0033     R0001     9
    C0033     R0002     -19
    C0034     R0001     96
    C0034     R0002     -106
    C0035     R0001     75
    C0035     R0002     -85
    C0036     R0001     74
    C0036     R0002     -84
    C0037     R0001     26
    C0037     R0002     -36
    C0038     R0001     68
    C0038     R0002     -78
    C0039     R0001     36
    C0039     R0002     -46
    C0040     R0001     52
    C0040     R0002     -62
    C0041     R0001     74
    C0041     R0002     -84
    C0042     R0001     26
    C0042     R0002     -36
    C0043     R0001     10
    C0043     R0002     -20
    C0044     R0001     95
    C0044     R0002     -105
    C0045     R0001     70
    C0045     R0002     -80
    C0046     R0001     45
    C0046     R0002     -55
    C0047     R0001     42
    C0047     R0002     -52
    C0048     R0001     17
    C0048     R0002     -27
    C0049     R0001     69
    C0049     R0002     -79
    C0050     R0001     40
    C0050     R0002     -50
    INT1END   'MARKER'                 'INTEND'
RHS
    B         R0001     1287
BOUNDS
 UP BOUND     C0001     1
 UP BOUND     C0002     1
 UP BOUND     C0003     1
 UP BOUND     C0004     1
 UP BOUND     C0005     1
 UP BOUND     C0006     1
 UP BOUND     C0007     1
 UP BOUND     C0008     1
 UP BOUND     C0009     1
 UP BOUND     C0010     1
 UP BOUND     C0011     1
 UP BOUND     C0012     1
 UP BOUND     C0013     1
 UP BOUND     C0014     1
 UP BOUND     C0015     1
 UP BOUND     C0016     1
 UP BOUND     C0017     1
 UP BOUND     C0018     1
 UP BOUND     C0019     1
 UP BOUND     C0020     1
 UP BOUND     C0021     1
 UP BOUND     C0022     1
 UP BOUND     C0023     1
 UP BOUND     C0024     1
 UP BOUND     C0025     1
 UP BOUND     C0026     1
 UP BOUND     C0027     1
 UP BOUND     C0028     1
 UP BOUND     C0029     1
 UP BOUND     C0030     1
 UP BOUND     C0031     1
 UP BOUND     C0032     1
 UP BOUND     C0033     1
 UP BOUND     C0034     1
 UP BOUND     C0035     1
 UP BOUND     C0036     1
 UP BOUND     C0037     1
 UP BOUND     C0038     1
 UP BOUND     C0039     1
 UP BOUND     C0040     1
 UP BOUND     C0041     1
 UP BOUND     C0042     1
 UP BOUND     C0043     1
 UP BOUND     C0044     1
 UP BOUND     C0045     1
 UP BOUND     C0046     1
 UP BOUND     C0047     1
 UP BOUND     C0048     1
 UP BOUND     C0049     1
 UP BOUND     C0050     1
ENDATA
