examples/Knap/data/easy/input50_1.txt
ITEM 37 47
ITEM 16 26
ITEM 78 88
ITEM 87 97
ITEM 66 76
ITEM 30 40
ITEM 93 103
ITEM 62 72
ITEM 26 36
ITEM 6 16
ITEM 89 99
ITEM 58 68
ITEM 21 31
ITEM 45 55
ITEM 35 45
ITEM 46 56
ITEM 46 56
ITEM 25 35
ITEM 97 107
ITEM 87 97
ITEM 89 99
ITEM 38 48
ITEM 61 71
ITEM 39 49
ITEM 46 56
ITEM 6 16
ITEM 24 34
ITEM 50 60
ITEM 50 60
ITEM 92 102
ITEM 18 28
ITEM 87 97
ITEM 9 19
ITEM 96 106
ITEM 75 85
ITEM 74 84
ITEM 26 36
ITEM 68 78
ITEM 36 46
ITEM 52 62
ITEM 74 84
ITEM 26 36
ITEM 10 20
ITEM 95 105
ITEM 70 80
ITEM 45 55
ITEM 42 52
ITEM 17 27
ITEM 69 79
ITEM 40 50
CAPACITY 1287
